20:51:35 | INFO    | Run started | run_id: SR_SV_WT_case3_P5_eps9999 | log file: C:\Users\Asus\Documents\GitHub\logistics-model2\internal-logistics-model2\results\SR_SV_WT\case3\SR_SV_WT_case3_P5_eps9999_2026_05_04_20_51.log
20:51:35 | INFO    | Products loaded | sheet=case3 | rows=10
20:51:35 | INFO    | Data loaded | |N|=26 |Nw|=25 |K|=1 |R|=1 |P|=5 | U=25
20:51:35 | INFO    | Big-M | time=491.0 precedence=480.0 wait=465.0 load_lb=20 load_ub=20
20:51:35 | INFO    | Set parameter Username
20:51:35 | INFO    | Set parameter LicenseID to value 2811848
20:51:35 | INFO    | Academic license - for non-commercial use only - expires 2027-04-22
20:51:35 | INFO    | Objective set | primary: min total_wait | tie-break weight on route_duration: 0.001
20:51:35 | INFO    | Constraint (3) added | route_duration <= 9999
20:51:35 | INFO    | Constraints (4)-(9) added | route structure
20:51:35 | INFO    | Constraints (10)-(12) added | product assignment
20:51:35 | INFO    | Constraints (13)-(15) added | route timing
20:51:35 | INFO    | Constraints (16) added | time consistency
20:51:35 | INFO    | Constraints (17)-(19) added | service times
20:51:35 | INFO    | Constraints (20)-(22) added | precedence, route closure, waiting
20:51:35 | INFO    | Constraints (23)-(27) added | load propagation
20:51:35 | INFO    | Constraints (28)-(32) added | MTZ and route ordering
20:51:35 | INFO    | Set parameter TimeLimit to value 600
20:51:35 | INFO    | Set parameter MIPGap to value 0.01
20:51:35 | INFO    | Set parameter Presolve to value 2
20:51:35 | INFO    | Set parameter LogFile to value "C:\Users\Asus\Documents\GitHub\logistics-model2\internal-logistics-model2\results\SR_SV_WT\case3\result_SR_SV_WT_case3_P5_eps9999_2026_05_04_20_51.log"
20:51:35 | INFO    | Solver configured | TimeLimit=600s | MIPGap=0.01 | gurobi_log=C:\Users\Asus\Documents\GitHub\logistics-model2\internal-logistics-model2\results\SR_SV_WT\case3\result_SR_SV_WT_case3_P5_eps9999_2026_05_04_20_51.log
20:51:35 | INFO    | Optimization starting...
20:51:35 | INFO    | Gurobi Optimizer version 12.0.0 build v12.0.0rc1 (win64 - Windows 10.0 (19045.2))
20:51:35 | INFO    | 
20:51:35 | INFO    | CPU model: 12th Gen Intel(R) Core(TM) i7-12650H, instruction set [SSE2|AVX|AVX2]
20:51:35 | INFO    | Thread count: 10 physical cores, 16 logical processors, using up to 16 threads
20:51:35 | INFO    | 
20:51:35 | INFO    | Non-default parameters:
20:51:35 | INFO    | TimeLimit  600
20:51:35 | INFO    | MIPGap  0.01
20:51:35 | INFO    | Presolve  2
20:51:35 | INFO    | 
20:51:35 | INFO    | Optimize a model with 2717 rows, 813 columns and 13585 nonzeros
20:51:35 | INFO    | Model fingerprint: 0x740cfa22
20:51:35 | INFO    | Variable types: 133 continuous, 680 integer (655 binary)
20:51:35 | INFO    | Coefficient statistics:
20:51:35 | INFO    |   Matrix range     [1e+00, 5e+02]
20:51:35 | INFO    |   Objective range  [1e-03, 1e+00]
20:51:35 | INFO    |   Bounds range     [1e+00, 3e+01]
20:51:35 | INFO    |   RHS range        [1e+00, 1e+04]
20:51:35 | INFO    | Presolve removed 2509 rows and 731 columns
20:51:35 | INFO    | Presolve time: 0.01s
20:51:35 | INFO    | Presolved: 208 rows, 82 columns, 873 nonzeros
20:51:35 | INFO    | Variable types: 24 continuous, 58 integer (51 binary)
20:51:35 | INFO    | Found heuristic solution: objective 265.1130000
20:51:35 | INFO    | Root relaxation presolve removed 21 rows and 1 columns
20:51:35 | INFO    | Root relaxation presolved: 187 rows, 81 columns, 826 nonzeros
20:51:35 | INFO    | 
20:51:35 | INFO    | 
20:51:35 | INFO    | Root relaxation: objective 8.600000e+01, 56 iterations, 0.00 seconds (0.00 work units)
20:51:35 | INFO    | 
20:51:35 | INFO    |     Nodes    |    Current Node    |     Objective Bounds      |     Work
20:51:35 | INFO    |  Expl Unexpl |  Obj  Depth IntInf | Incumbent    BestBd   Gap | It/Node Time
20:51:35 | INFO    | 
20:51:35 | INFO    |      0     0   86.00000    0   12  265.11300   86.00000  67.6%     -    0s
20:51:35 | INFO    | H    0     0                     208.0980000   86.00000  58.7%     -    0s
20:51:35 | INFO    | H    0     0                     190.0960000   86.00000  54.8%     -    0s
20:51:35 | INFO    | H    0     0                     177.0990000   86.00000  51.4%     -    0s
20:51:35 | INFO    | H    0     0                     167.0960000   86.00000  48.5%     -    0s
20:51:35 | INFO    |      0     0   86.00000    0   18  167.09600   86.00000  48.5%     -    0s
20:51:35 | INFO    | H    0     0                     154.0880000   86.00000  44.2%     -    0s
20:51:35 | INFO    |      0     0   86.00000    0   18  154.08800   86.00000  44.2%     -    0s
20:51:35 | INFO    | H    0     0                     132.0860000   92.00898  30.3%     -    0s
20:51:35 | INFO    |      0     0   94.23510    0   26  132.08600   94.23510  28.7%     -    0s
20:51:35 | INFO    |      0     0   96.31257    0   22  132.08600   96.31257  27.1%     -    0s
20:51:35 | INFO    | H    0     0                     130.0850000   96.42519  25.9%     -    0s
20:51:35 | INFO    |      0     0  102.50286    0   18  130.08500  102.50286  21.2%     -    0s
20:51:35 | INFO    |      0     0  104.45484    0   18  130.08500  104.45484  19.7%     -    0s
20:51:35 | INFO    |      0     0  104.45484    0   18  130.08500  104.45484  19.7%     -    0s
20:51:35 | INFO    |      0     0  112.07550    0   13  130.08500  112.07550  13.8%     -    0s
20:51:35 | INFO    |      0     0  112.07600    0   13  130.08500  112.07600  13.8%     -    0s
20:51:35 | INFO    |      0     0  116.07556    0    7  130.08500  116.07556  10.8%     -    0s
20:51:35 | INFO    |      0     0  116.09692    0   15  130.08500  116.09692  10.8%     -    0s
20:51:35 | INFO    |      0     0  116.21520    0   15  130.08500  116.21520  10.7%     -    0s
20:51:35 | INFO    |      0     0  116.35333    0   15  130.08500  116.35333  10.6%     -    0s
20:51:35 | INFO    |      0     0  116.49667    0   16  130.08500  116.49667  10.4%     -    0s
20:51:35 | INFO    |      0     0  116.49667    0   16  130.08500  116.49667  10.4%     -    0s
20:51:35 | INFO    |      0     0  116.49667    0   18  130.08500  116.49667  10.4%     -    0s
20:51:35 | INFO    |      0     0  116.49667    0   12  130.08500  116.49667  10.4%     -    0s
20:51:35 | INFO    |      0     0  116.57600    0   15  130.08500  116.57600  10.4%     -    0s
20:51:35 | INFO    |      0     0  116.57600    0   18  130.08500  116.57600  10.4%     -    0s
20:51:35 | INFO    |      0     0  120.10047    0   10  130.08500  120.10047  7.68%     -    0s
20:51:35 | INFO    |      0     0  120.10047    0   20  130.08500  120.10047  7.68%     -    0s
20:51:35 | INFO    |      0     0  121.68571    0   20  130.08500  121.68571  6.46%     -    0s
20:51:35 | INFO    |      0     0  122.34132    0   20  130.08500  122.34132  5.95%     -    0s
20:51:35 | INFO    | 
20:51:35 | INFO    | Cutting planes:
20:51:35 | INFO    |   Learned: 1
20:51:35 | INFO    |   Implied bound: 4
20:51:35 | INFO    |   MIR: 21
20:51:35 | INFO    |   Relax-and-lift: 3
20:51:35 | INFO    | 
20:51:35 | INFO    | Explored 1 nodes (563 simplex iterations) in 0.09 seconds (0.05 work units)
20:51:35 | INFO    | Thread count was 16 (of 16 available processors)
20:51:35 | INFO    | 
20:51:35 | INFO    | Solution count 9: 130.085 132.086 132.086 ... 265.113
20:51:35 | INFO    | 
20:51:35 | INFO    | Optimal solution found (tolerance 1.00e-02)
20:51:35 | INFO    | Best objective 1.300850000000e+02, best bound 1.300472683322e+02, gap 0.0290%
20:51:35 | INFO    | Solution found | total_wait=130.00 | route_duration=85.00
20:51:35 | INFO    | Objective=130.08 | runtime=0.10s | MIP Gap=0.03%
20:51:35 | INFO    | Generating Excel output | C:\Users\Asus\Documents\GitHub\logistics-model2\internal-logistics-model2\results\SR_SV_WT\case3\result_SR_SV_WT_case3_P5_eps9999_2026_05_04_20_51.xlsx
20:51:35 | INFO    | Excel output written | 12 sheets | C:\Users\Asus\Documents\GitHub\logistics-model2\internal-logistics-model2\results\SR_SV_WT\case3\result_SR_SV_WT_case3_P5_eps9999_2026_05_04_20_51.xlsx
20:51:35 | INFO    | Master Pareto updated | 13 total rows | C:\Users\Asus\Documents\GitHub\logistics-model2\internal-logistics-model2\results\master_pareto.xlsx
20:51:35 | INFO    | Run complete | run_id=SR_SV_WT_case3_P5_eps9999
